NAME : traveling-santa-2018-prime-paths.30139.tour
COMMENT : Length = 30139
COMMENT : Found by LKH [Keld Helsgaun] Sun Jun 12 19:59:49 2022
TYPE : TOUR
DIMENSION : 100
TOUR_SECTION
1
3
96
42
80
20
19
86
81
35
53
32
11
60
83
25
69
37
48
8
98
5
47
91
13
12
75
33
68
31
89
78
54
26
95
21
40
55
51
58
77
17
62
73
64
41
66
63
56
16
52
10
24
90
84
92
38
46
4
88
65
14
15
76
61
39
99
94
93
6
29
70
57
74
100
9
71
18
67
34
85
72
27
28
50
7
79
87
36
30
97
22
49
2
59
82
44
23
43
45
-1
EOF
